  8	62
 18
  0	 36	 25	 98	 37	 61	 21	 87	 83	 52	123	  4	 99	114	 42	104	 66	125	
 18
  0	 13	  6	 62	 68	 75	 28	124	 90	 51	  2	113	 10	 14	 76	 64	 72	125	
 24
  0	 20	 22	 46	 49	 82	 84	 47	111	109	 38	 44	108	106	100	 58	  8	120	 70	  5	 26	 67	 88	125	
 20
  0	 11	 73	  7	 34	 69	 27	 35	 89	 23	 96	 85	 30	 97	 54	116	 31	 92	 93	125	
 18
  0	 17	 32	 94	 79	  3	 65	 55	 56	 15	117	 45	 18	118	 77	107	 80	125	
 10
  0	 29	 60	 91	122	 24	 12	 86	 74	125	
 14
  0	 19	  9	 81	 71	 41	 48	103	 40	110	 59	102	121	125	
 18
  0	  1	 43	 53	 63	 39	105	115	101	 33	 16	 57	 50	119	 95	112	 78	125	
